-295.0 7.0 1.0 4.0 4.0 0.0 0.0 8.0 3.0 1.0 4.0 2.0 10.0 8.0 5.0 2.0 8.0 4.0 7.0 9.0 4.0 5.0 6.0 3.0 0.0 4.0 9.0 10.0 9.0 7.0 1.0 2.0 10.0 6.0 2.0 5.0 8.0 1.0 5.0 3.0 6.0 9.0 1.0 3.0 10.0 10.0 8.0 9.0 1.0 3.0 8.0 1.0 3.0 2.0 3.0 2.0 0.0 9.0 7.0 2.0 9.0 2.0 0.0 
7.0 -305.0 2.0 1.0 7.0 1.0 3.0 4.0 10.0 3.0 10.0 8.0 9.0 9.0 5.0 2.0 2.0 1.0 1.0 10.0 1.0 2.0 6.0 9.0 1.0 5.0 3.0 4.0 9.0 5.0 10.0 7.0 3.0 1.0 4.0 4.0 5.0 7.0 9.0 10.0 5.0 6.0 3.0 10.0 3.0 5.0 1.0 3.0 8.0 10.0 8.0 1.0 1.0 3.0 10.0 5.0 7.0 10.0 5.0 1.0 0.0 0.0 0.0 
1.0 2.0 -285.0 8.0 8.0 3.0 6.0 4.0 0.0 5.0 5.0 1.0 5.0 7.0 3.0 5.0 0.0 2.0 8.0 0.0 7.0 4.0 4.0 0.0 6.0 5.0 2.0 10.0 1.0 3.0 9.0 4.0 1.0 6.0 10.0 5.0 0.0 9.0 2.0 4.0 0.0 9.0 0.0 8.0 5.0 3.0 2.0 7.0 7.0 7.0 10.0 8.0 7.0 9.0 4.0 5.0 5.0 1.0 8.0 6.0 5.0 0.0 4.0 
4.0 1.0 8.0 -329.0 0.0 10.0 5.0 9.0 4.0 6.0 7.0 8.0 6.0 9.0 6.0 10.0 9.0 1.0 7.0 5.0 10.0 9.0 3.0 0.0 2.0 6.0 10.0 1.0 8.0 9.0 10.0 4.0 1.0 5.0 0.0 6.0 10.0 1.0 5.0 9.0 2.0 3.0 10.0 4.0 1.0 3.0 1.0 3.0 7.0 0.0 7.0 1.0 10.0 1.0 7.0 8.0 7.0 5.0 3.0 1.0 8.0 8.0 5.0 
4.0 7.0 8.0 0.0 -316.0 9.0 8.0 4.0 5.0 3.0 8.0 7.0 5.0 8.0 4.0 6.0 8.0 8.0 8.0 5.0 0.0 6.0 7.0 1.0 10.0 1.0 6.0 8.0 9.0 10.0 8.0 6.0 7.0 4.0 4.0 0.0 1.0 4.0 7.0 5.0 1.0 4.0 2.0 8.0 1.0 8.0 6.0 7.0 0.0 2.0 1.0 6.0 2.0 7.0 0.0 4.0 4.0 2.0 6.0 10.0 5.0 5.0 6.0 
0.0 1.0 3.0 10.0 9.0 -323.0 7.0 0.0 10.0 10.0 4.0 1.0 6.0 9.0 1.0 3.0 9.0 2.0 0.0 10.0 3.0 1.0 2.0 6.0 9.0 8.0 4.0 9.0 10.0 1.0 8.0 2.0 1.0 2.0 10.0 3.0 2.0 7.0 6.0 5.0 6.0 9.0 3.0 4.0 0.0 8.0 4.0 8.0 5.0 10.0 2.0 7.0 10.0 7.0 0.0 10.0 10.0 7.0 9.0 2.0 4.0 3.0 1.0 
0.0 3.0 6.0 5.0 8.0 7.0 -327.0 10.0 8.0 9.0 2.0 5.0 4.0 2.0 4.0 10.0 7.0 6.0 7.0 5.0 3.0 10.0 1.0 2.0 7.0 5.0 1.0 5.0 2.0 10.0 5.0 1.0 6.0 4.0 5.0 10.0 7.0 0.0 4.0 0.0 9.0 6.0 7.0 10.0 5.0 0.0 10.0 7.0 1.0 0.0 0.0 10.0 10.0 9.0 9.0 1.0 1.0 8.0 6.0 9.0 9.0 1.0 3.0 
8.0 4.0 4.0 9.0 4.0 0.0 10.0 -320.0 4.0 9.0 7.0 8.0 7.0 9.0 5.0 10.0 7.0 10.0 8.0 0.0 1.0 7.0 7.0 6.0 5.0 6.0 10.0 10.0 10.0 2.0 1.0 3.0 3.0 8.0 1.0 8.0 0.0 3.0 4.0 0.0 0.0 10.0 5.0 0.0 7.0 3.0 8.0 3.0 9.0 7.0 0.0 1.0 3.0 6.0 9.0 0.0 5.0 5.0 3.0 0.0 10.0 5.0 3.0 
3.0 10.0 0.0 4.0 5.0 10.0 8.0 4.0 -326.0 2.0 9.0 8.0 4.0 4.0 0.0 8.0 3.0 1.0 9.0 3.0 5.0 10.0 0.0 3.0 1.0 0.0 9.0 4.0 1.0 7.0 10.0 4.0 1.0 7.0 10.0 2.0 2.0 7.0 3.0 6.0 8.0 3.0 4.0 1.0 7.0 9.0 9.0 10.0 10.0 8.0 9.0 0.0 9.0 9.0 4.0 4.0 7.0 1.0 5.0 0.0 7.0 7.0 8.0 
1.0 3.0 5.0 6.0 3.0 10.0 9.0 9.0 2.0 -305.0 1.0 0.0 6.0 8.0 4.0 6.0 2.0 10.0 2.0 7.0 2.0 4.0 7.0 8.0 5.0 7.0 5.0 8.0 0.0 8.0 3.0 1.0 1.0 7.0 4.0 8.0 8.0 3.0 2.0 4.0 4.0 8.0 6.0 4.0 3.0 4.0 5.0 10.0 1.0 6.0 1.0 9.0 0.0 5.0 8.0 3.0 1.0 10.0 2.0 7.0 9.0 9.0 1.0 
4.0 10.0 5.0 7.0 8.0 4.0 2.0 7.0 9.0 1.0 -383.0 10.0 10.0 9.0 10.0 4.0 4.0 6.0 7.0 4.0 9.0 0.0 2.0 8.0 6.0 9.0 6.0 4.0 6.0 9.0 4.0 7.0 8.0 7.0 8.0 10.0 4.0 6.0 9.0 10.0 1.0 1.0 1.0 6.0 10.0 0.0 4.0 9.0 4.0 10.0 9.0 6.0 10.0 3.0 10.0 10.0 4.0 5.0 10.0 4.0 1.0 6.0 6.0 
2.0 8.0 1.0 8.0 7.0 1.0 5.0 8.0 8.0 0.0 10.0 -310.0 8.0 4.0 8.0 0.0 3.0 5.0 2.0 4.0 5.0 8.0 0.0 0.0 10.0 3.0 6.0 3.0 7.0 2.0 1.0 1.0 3.0 10.0 8.0 7.0 1.0 4.0 4.0 7.0 3.0 4.0 5.0 6.0 5.0 4.0 0.0 1.0 9.0 3.0 6.0 3.0 10.0 9.0 10.0 3.0 5.0 6.0 5.0 10.0 1.0 10.0 10.0 
10.0 9.0 5.0 6.0 5.0 6.0 4.0 7.0 4.0 6.0 10.0 8.0 -342.0 1.0 6.0 8.0 10.0 4.0 10.0 6.0 5.0 4.0 5.0 2.0 6.0 1.0 7.0 0.0 0.0 10.0 4.0 9.0 7.0 2.0 6.0 3.0 3.0 5.0 3.0 10.0 8.0 8.0 10.0 4.0 3.0 10.0 8.0 1.0 6.0 2.0 2.0 8.0 2.0 10.0 0.0 4.0 7.0 7.0 3.0 4.0 5.0 4.0 9.0 
8.0 9.0 7.0 9.0 8.0 9.0 2.0 9.0 4.0 8.0 9.0 4.0 1.0 -363.0 4.0 10.0 4.0 10.0 1.0 5.0 10.0 9.0 4.0 7.0 2.0 5.0 6.0 1.0 5.0 9.0 4.0 1.0 3.0 9.0 7.0 8.0 8.0 7.0 1.0 9.0 6.0 0.0 7.0 6.0 7.0 10.0 8.0 1.0 0.0 3.0 3.0 10.0 8.0 5.0 4.0 0.0 10.0 5.0 4.0 9.0 10.0 7.0 4.0 
5.0 5.0 3.0 6.0 4.0 1.0 4.0 5.0 0.0 4.0 10.0 8.0 6.0 4.0 -286.0 10.0 9.0 4.0 6.0 3.0 9.0 5.0 1.0 10.0 4.0 10.0 10.0 3.0 3.0 9.0 10.0 0.0 1.0 5.0 2.0 1.0 8.0 6.0 0.0 8.0 5.0 9.0 7.0 1.0 2.0 3.0 4.0 3.0 5.0 10.0 1.0 1.0 4.0 4.0 0.0 0.0 1.0 3.0 0.0 1.0 8.0 8.0 4.0 
2.0 2.0 5.0 10.0 6.0 3.0 10.0 10.0 8.0 6.0 4.0 0.0 8.0 10.0 10.0 -331.0 0.0 8.0 8.0 8.0 5.0 10.0 0.0 5.0 2.0 9.0 5.0 10.0 2.0 4.0 8.0 8.0 3.0 1.0 6.0 5.0 3.0 1.0 8.0 8.0 7.0 1.0 7.0 1.0 10.0 4.0 2.0 7.0 3.0 4.0 2.0 7.0 10.0 8.0 7.0 9.0 2.0 1.0 8.0 3.0 1.0 2.0 4.0 
8.0 2.0 0.0 9.0 8.0 9.0 7.0 7.0 3.0 2.0 4.0 3.0 10.0 4.0 9.0 0.0 -305.0 9.0 5.0 5.0 1.0 6.0 3.0 8.0 5.0 6.0 5.0 3.0 7.0 4.0 6.0 1.0 3.0 7.0 10.0 5.0 6.0 0.0 5.0 9.0 2.0 10.0 0.0 4.0 8.0 4.0 6.0 2.0 2.0 4.0 2.0 8.0 0.0 5.0 3.0 2.0 3.0 10.0 6.0 7.0 4.0 4.0 5.0 
4.0 1.0 2.0 1.0 8.0 2.0 6.0 10.0 1.0 10.0 6.0 5.0 4.0 10.0 4.0 8.0 9.0 -321.0 8.0 8.0 7.0 9.0 0.0 4.0 2.0 0.0 8.0 5.0 6.0 1.0 10.0 1.0 2.0 3.0 0.0 9.0 5.0 10.0 2.0 6.0 5.0 9.0 1.0 5.0 2.0 10.0 7.0 3.0 4.0 7.0 7.0 1.0 8.0 8.0 10.0 1.0 6.0 4.0 7.0 5.0 6.0 7.0 1.0 
7.0 1.0 8.0 7.0 8.0 0.0 7.0 8.0 9.0 2.0 7.0 2.0 10.0 1.0 6.0 8.0 5.0 8.0 -321.0 4.0 9.0 4.0 0.0 8.0 1.0 2.0 3.0 10.0 10.0 7.0 8.0 3.0 0.0 4.0 8.0 2.0 7.0 4.0 9.0 0.0 4.0 6.0 8.0 4.0 4.0 3.0 4.0 8.0 2.0 9.0 5.0 10.0 5.0 10.0 3.0 10.0 0.0 0.0 1.0 3.0 3.0 5.0 7.0 
9.0 10.0 0.0 5.0 5.0 10.0 5.0 0.0 3.0 7.0 4.0 4.0 6.0 5.0 3.0 8.0 5.0 8.0 4.0 -298.0 4.0 8.0 4.0 0.0 0.0 8.0 1.0 5.0 1.0 2.0 6.0 2.0 9.0 2.0 3.0 3.0 6.0 0.0 7.0 6.0 10.0 1.0 6.0 3.0 8.0 10.0 10.0 10.0 1.0 2.0 10.0 10.0 5.0 0.0 4.0 1.0 2.0 8.0 3.0 6.0 2.0 1.0 7.0 
4.0 1.0 7.0 10.0 0.0 3.0 3.0 1.0 5.0 2.0 9.0 5.0 5.0 10.0 9.0 5.0 1.0 7.0 9.0 4.0 -330.0 7.0 0.0 9.0 9.0 5.0 10.0 1.0 5.0 4.0 10.0 10.0 10.0 9.0 7.0 1.0 7.0 2.0 9.0 5.0 4.0 9.0 3.0 0.0 6.0 3.0 8.0 9.0 1.0 3.0 6.0 1.0 3.0 2.0 3.0 7.0 8.0 8.0 3.0 5.0 6.0 9.0 3.0 
5.0 2.0 4.0 9.0 6.0 1.0 10.0 7.0 10.0 4.0 0.0 8.0 4.0 9.0 5.0 10.0 6.0 9.0 4.0 8.0 7.0 -362.0 2.0 6.0 5.0 7.0 7.0 0.0 10.0 2.0 3.0 5.0 9.0 8.0 10.0 9.0 9.0 1.0 8.0 9.0 10.0 3.0 0.0 5.0 4.0 4.0 4.0 3.0 8.0 0.0 2.0 4.0 9.0 10.0 2.0 8.0 6.0 6.0 10.0 7.0 7.0 4.0 8.0 
6.0 6.0 4.0 3.0 7.0 2.0 1.0 7.0 0.0 7.0 2.0 0.0 5.0 4.0 1.0 0.0 3.0 0.0 0.0 4.0 0.0 2.0 -252.0 0.0 1.0 7.0 4.0 2.0 0.0 0.0 8.0 2.0 10.0 5.0 10.0 5.0 3.0 10.0 6.0 6.0 3.0 9.0 6.0 4.0 1.0 3.0 0.0 7.0 10.0 4.0 9.0 4.0 2.0 7.0 2.0 5.0 6.0 0.0 9.0 4.0 2.0 10.0 2.0 
3.0 9.0 0.0 0.0 1.0 6.0 2.0 6.0 3.0 8.0 8.0 0.0 2.0 7.0 10.0 5.0 8.0 4.0 8.0 0.0 9.0 6.0 0.0 -286.0 2.0 0.0 6.0 0.0 6.0 3.0 2.0 6.0 6.0 0.0 0.0 9.0 1.0 2.0 0.0 3.0 6.0 6.0 0.0 10.0 9.0 7.0 5.0 9.0 9.0 10.0 6.0 5.0 3.0 6.0 8.0 6.0 7.0 3.0 7.0 3.0 5.0 1.0 4.0 
0.0 1.0 6.0 2.0 10.0 9.0 7.0 5.0 1.0 5.0 6.0 10.0 6.0 2.0 4.0 2.0 5.0 2.0 1.0 0.0 9.0 5.0 1.0 2.0 -274.0 2.0 6.0 5.0 1.0 5.0 2.0 3.0 4.0 8.0 4.0 10.0 9.0 5.0 10.0 1.0 9.0 4.0 2.0 5.0 1.0 7.0 7.0 5.0 2.0 8.0 2.0 10.0 0.0 4.0 0.0 3.0 10.0 6.0 8.0 0.0 1.0 3.0 1.0 
4.0 5.0 5.0 6.0 1.0 8.0 5.0 6.0 0.0 7.0 9.0 3.0 1.0 5.0 10.0 9.0 6.0 0.0 2.0 8.0 5.0 7.0 7.0 0.0 2.0 -292.0 7.0 6.0 2.0 2.0 7.0 3.0 2.0 0.0 3.0 7.0 6.0 7.0 5.0 7.0 4.0 1.0 1.0 7.0 5.0 1.0 10.0 9.0 4.0 3.0 8.0 9.0 8.0 0.0 5.0 8.0 1.0 2.0 9.0 3.0 3.0 3.0 3.0 
9.0 3.0 2.0 10.0 6.0 4.0 1.0 10.0 9.0 5.0 6.0 6.0 7.0 6.0 10.0 5.0 5.0 8.0 3.0 1.0 10.0 7.0 4.0 6.0 6.0 7.0 -327.0 4.0 5.0 3.0 3.0 3.0 4.0 6.0 3.0 9.0 7.0 3.0 8.0 0.0 4.0 10.0 7.0 0.0 7.0 3.0 0.0 1.0 6.0 8.0 5.0 7.0 2.0 0.0 2.0 6.0 4.0 5.0 5.0 5.0 9.0 9.0 8.0 
10.0 4.0 10.0 1.0 8.0 9.0 5.0 10.0 4.0 8.0 4.0 3.0 0.0 1.0 3.0 10.0 3.0 5.0 10.0 5.0 1.0 0.0 2.0 0.0 5.0 6.0 4.0 -311.0 3.0 2.0 9.0 7.0 8.0 2.0 0.0 7.0 7.0 0.0 0.0 7.0 8.0 10.0 2.0 4.0 4.0 4.0 9.0 7.0 0.0 4.0 4.0 7.0 9.0 7.0 6.0 7.0 6.0 8.0 8.0 1.0 5.0 8.0 0.0 
9.0 9.0 1.0 8.0 9.0 10.0 2.0 10.0 1.0 0.0 6.0 7.0 0.0 5.0 3.0 2.0 7.0 6.0 10.0 1.0 5.0 10.0 0.0 6.0 1.0 2.0 5.0 3.0 -330.0 2.0 3.0 9.0 5.0 10.0 1.0 2.0 9.0 9.0 4.0 4.0 7.0 8.0 9.0 7.0 10.0 6.0 9.0 10.0 4.0 0.0 10.0 4.0 3.0 6.0 7.0 3.0 4.0 7.0 2.0 3.0 4.0 6.0 5.0 
7.0 5.0 3.0 9.0 10.0 1.0 10.0 2.0 7.0 8.0 9.0 2.0 10.0 9.0 9.0 4.0 4.0 1.0 7.0 2.0 4.0 2.0 0.0 3.0 5.0 2.0 3.0 2.0 2.0 -315.0 5.0 7.0 1.0 1.0 5.0 9.0 1.0 4.0 7.0 5.0 3.0 5.0 0.0 10.0 7.0 8.0 10.0 9.0 8.0 4.0 8.0 4.0 7.0 5.0 1.0 2.0 3.0 4.0 3.0 10.0 1.0 9.0 7.0 
1.0 10.0 9.0 10.0 8.0 8.0 5.0 1.0 10.0 3.0 4.0 1.0 4.0 4.0 10.0 8.0 6.0 10.0 8.0 6.0 10.0 3.0 8.0 2.0 2.0 7.0 3.0 9.0 3.0 5.0 -355.0 3.0 1.0 5.0 1.0 3.0 7.0 7.0 6.0 0.0 9.0 3.0 5.0 6.0 6.0 7.0 3.0 4.0 5.0 9.0 4.0 6.0 3.0 9.0 7.0 9.0 3.0 9.0 3.0 9.0 5.0 10.0 10.0 
2.0 7.0 4.0 4.0 6.0 2.0 1.0 3.0 4.0 1.0 7.0 1.0 9.0 1.0 0.0 8.0 1.0 1.0 3.0 2.0 10.0 5.0 2.0 6.0 3.0 3.0 3.0 7.0 9.0 7.0 3.0 -285.0 6.0 6.0 2.0 10.0 8.0 7.0 7.0 0.0 1.0 2.0 4.0 5.0 9.0 8.0 0.0 6.0 1.0 7.0 7.0 5.0 3.0 5.0 10.0 9.0 8.0 4.0 10.0 0.0 5.0 0.0 5.0 
10.0 3.0 1.0 1.0 7.0 1.0 6.0 3.0 1.0 1.0 8.0 3.0 7.0 3.0 1.0 3.0 3.0 2.0 0.0 9.0 10.0 9.0 10.0 6.0 4.0 2.0 4.0 8.0 5.0 1.0 1.0 6.0 -302.0 9.0 2.0 0.0 2.0 10.0 6.0 10.0 10.0 2.0 2.0 10.0 6.0 2.0 1.0 2.0 9.0 2.0 6.0 7.0 9.0 4.0 8.0 9.0 10.0 3.0 0.0 7.0 4.0 2.0 9.0 
6.0 1.0 6.0 5.0 4.0 2.0 4.0 8.0 7.0 7.0 7.0 10.0 2.0 9.0 5.0 1.0 7.0 3.0 4.0 2.0 9.0 8.0 5.0 0.0 8.0 0.0 6.0 2.0 10.0 1.0 5.0 6.0 9.0 -315.0 5.0 4.0 9.0 3.0 6.0 3.0 10.0 5.0 7.0 0.0 5.0 2.0 7.0 0.0 3.0 10.0 9.0 4.0 5.0 6.0 10.0 5.0 7.0 3.0 6.0 3.0 1.0 0.0 8.0 
2.0 4.0 10.0 0.0 4.0 10.0 5.0 1.0 10.0 4.0 8.0 8.0 6.0 7.0 2.0 6.0 10.0 0.0 8.0 3.0 7.0 10.0 10.0 0.0 4.0 3.0 3.0 0.0 1.0 5.0 1.0 2.0 2.0 5.0 -324.0 2.0 7.0 4.0 7.0 3.0 6.0 7.0 7.0 2.0 7.0 3.0 7.0 4.0 9.0 8.0 6.0 8.0 9.0 7.0 0.0 10.0 2.0 9.0 7.0 3.0 5.0 7.0 7.0 
5.0 4.0 5.0 6.0 0.0 3.0 10.0 8.0 2.0 8.0 10.0 7.0 3.0 8.0 1.0 5.0 5.0 9.0 2.0 3.0 1.0 9.0 5.0 9.0 10.0 7.0 9.0 7.0 2.0 9.0 3.0 10.0 0.0 4.0 2.0 -358.0 9.0 5.0 4.0 10.0 10.0 6.0 6.0 10.0 6.0 3.0 2.0 7.0 7.0 6.0 6.0 7.0 8.0 2.0 8.0 9.0 3.0 3.0 2.0 6.0 9.0 8.0 5.0 
8.0 5.0 0.0 10.0 1.0 2.0 7.0 0.0 2.0 8.0 4.0 1.0 3.0 8.0 8.0 3.0 6.0 5.0 7.0 6.0 7.0 9.0 3.0 1.0 9.0 6.0 7.0 7.0 9.0 1.0 7.0 8.0 2.0 9.0 7.0 9.0 -332.0 6.0 7.0 4.0 6.0 8.0 4.0 4.0 3.0 1.0 7.0 5.0 5.0 0.0 10.0 1.0 9.0 8.0 0.0 10.0 7.0 6.0 0.0 0.0 9.0 10.0 7.0 
1.0 7.0 9.0 1.0 4.0 7.0 0.0 3.0 7.0 3.0 6.0 4.0 5.0 7.0 6.0 1.0 0.0 10.0 4.0 0.0 2.0 1.0 10.0 2.0 5.0 7.0 3.0 0.0 9.0 4.0 7.0 7.0 10.0 3.0 4.0 5.0 6.0 -303.0 6.0 7.0 9.0 4.0 0.0 3.0 4.0 8.0 7.0 7.0 7.0 6.0 7.0 7.0 3.0 0.0 6.0 4.0 9.0 1.0 4.0 9.0 4.0 10.0 1.0 
5.0 9.0 2.0 5.0 7.0 6.0 4.0 4.0 3.0 2.0 9.0 4.0 3.0 1.0 0.0 8.0 5.0 2.0 9.0 7.0 9.0 8.0 6.0 0.0 10.0 5.0 8.0 0.0 4.0 7.0 6.0 7.0 6.0 6.0 7.0 4.0 7.0 6.0 -347.0 1.0 1.0 10.0 10.0 5.0 4.0 3.0 3.0 7.0 1.0 9.0 10.0 8.0 8.0 8.0 6.0 7.0 7.0 10.0 10.0 3.0 9.0 3.0 3.0 
3.0 10.0 4.0 9.0 5.0 5.0 0.0 0.0 6.0 4.0 10.0 7.0 10.0 9.0 8.0 8.0 9.0 6.0 0.0 6.0 5.0 9.0 6.0 3.0 1.0 7.0 0.0 7.0 4.0 5.0 0.0 0.0 10.0 3.0 3.0 10.0 4.0 7.0 1.0 -312.0 8.0 2.0 6.0 5.0 2.0 10.0 1.0 7.0 4.0 0.0 4.0 4.0 3.0 5.0 3.0 8.0 6.0 7.0 2.0 5.0 7.0 5.0 4.0 
6.0 5.0 0.0 2.0 1.0 6.0 9.0 0.0 8.0 4.0 1.0 3.0 8.0 6.0 5.0 7.0 2.0 5.0 4.0 10.0 4.0 10.0 3.0 6.0 9.0 4.0 4.0 8.0 7.0 3.0 9.0 1.0 10.0 10.0 6.0 10.0 6.0 9.0 1.0 8.0 -322.0 0.0 8.0 8.0 10.0 2.0 8.0 0.0 0.0 2.0 1.0 7.0 10.0 0.0 3.0 2.0 9.0 4.0 7.0 8.0 3.0 5.0 5.0 
9.0 6.0 9.0 3.0 4.0 9.0 6.0 10.0 3.0 8.0 1.0 4.0 8.0 0.0 9.0 1.0 10.0 9.0 6.0 1.0 9.0 3.0 9.0 6.0 4.0 1.0 10.0 10.0 8.0 5.0 3.0 2.0 2.0 5.0 7.0 6.0 8.0 4.0 10.0 2.0 0.0 -322.0 1.0 0.0 1.0 7.0 8.0 5.0 6.0 10.0 4.0 0.0 3.0 2.0 0.0 6.0 6.0 5.0 9.0 2.0 10.0 1.0 6.0 
1.0 3.0 0.0 10.0 2.0 3.0 7.0 5.0 4.0 6.0 1.0 5.0 10.0 7.0 7.0 7.0 0.0 1.0 8.0 6.0 3.0 0.0 6.0 0.0 2.0 1.0 7.0 2.0 9.0 0.0 5.0 4.0 2.0 7.0 7.0 6.0 4.0 0.0 10.0 6.0 8.0 1.0 -279.0 7.0 9.0 6.0 0.0 1.0 0.0 5.0 3.0 4.0 1.0 9.0 6.0 10.0 7.0 10.0 9.0 0.0 0.0 0.0 9.0 
3.0 10.0 8.0 4.0 8.0 4.0 10.0 0.0 1.0 4.0 6.0 6.0 4.0 6.0 1.0 1.0 4.0 5.0 4.0 3.0 0.0 5.0 4.0 10.0 5.0 7.0 0.0 4.0 7.0 10.0 6.0 5.0 10.0 0.0 2.0 10.0 4.0 3.0 5.0 5.0 8.0 0.0 7.0 -324.0 9.0 2.0 1.0 10.0 3.0 5.0 4.0 10.0 7.0 10.0 3.0 8.0 5.0 3.0 10.0 8.0 2.0 8.0 7.0 
10.0 3.0 5.0 1.0 1.0 0.0 5.0 7.0 7.0 3.0 10.0 5.0 3.0 7.0 2.0 10.0 8.0 2.0 4.0 8.0 6.0 4.0 1.0 9.0 1.0 5.0 7.0 4.0 10.0 7.0 6.0 9.0 6.0 5.0 7.0 6.0 3.0 4.0 4.0 2.0 10.0 1.0 9.0 9.0 -322.0 4.0 10.0 5.0 4.0 7.0 7.0 1.0 5.0 1.0 3.0 7.0 2.0 3.0 5.0 7.0 6.0 0.0 9.0 
10.0 5.0 3.0 3.0 8.0 8.0 0.0 3.0 9.0 4.0 0.0 4.0 10.0 10.0 3.0 4.0 4.0 10.0 3.0 10.0 3.0 4.0 3.0 7.0 7.0 1.0 3.0 4.0 6.0 8.0 7.0 8.0 2.0 2.0 3.0 3.0 1.0 8.0 3.0 10.0 2.0 7.0 6.0 2.0 4.0 -297.0 2.0 10.0 3.0 5.0 10.0 4.0 1.0 8.0 7.0 9.0 1.0 8.0 1.0 0.0 1.0 0.0 2.0 
8.0 1.0 2.0 1.0 6.0 4.0 10.0 8.0 9.0 5.0 4.0 0.0 8.0 8.0 4.0 2.0 6.0 7.0 4.0 10.0 8.0 4.0 0.0 5.0 7.0 10.0 0.0 9.0 9.0 10.0 3.0 0.0 1.0 7.0 7.0 2.0 7.0 7.0 3.0 1.0 8.0 8.0 0.0 1.0 10.0 2.0 -308.0 1.0 1.0 8.0 10.0 1.0 7.0 8.0 5.0 3.0 0.0 10.0 0.0 7.0 1.0 9.0 1.0 
9.0 3.0 7.0 3.0 7.0 8.0 7.0 3.0 10.0 10.0 9.0 1.0 1.0 1.0 3.0 7.0 2.0 3.0 8.0 10.0 9.0 3.0 7.0 9.0 5.0 9.0 1.0 7.0 10.0 9.0 4.0 6.0 2.0 0.0 4.0 7.0 5.0 7.0 7.0 7.0 0.0 5.0 1.0 10.0 5.0 10.0 1.0 -329.0 6.0 0.0 6.0 6.0 6.0 6.0 5.0 0.0 6.0 5.0 7.0 2.0 5.0 5.0 2.0 
1.0 8.0 7.0 7.0 0.0 5.0 1.0 9.0 10.0 1.0 4.0 9.0 6.0 0.0 5.0 3.0 2.0 4.0 2.0 1.0 1.0 8.0 10.0 9.0 2.0 4.0 6.0 0.0 4.0 8.0 5.0 1.0 9.0 3.0 9.0 7.0 5.0 7.0 1.0 4.0 0.0 6.0 0.0 3.0 4.0 3.0 1.0 6.0 -269.0 2.0 2.0 9.0 1.0 5.0 0.0 3.0 8.0 10.0 0.0 7.0 9.0 1.0 1.0 
3.0 10.0 7.0 0.0 2.0 10.0 0.0 7.0 8.0 6.0 10.0 3.0 2.0 3.0 10.0 4.0 4.0 7.0 9.0 2.0 3.0 0.0 4.0 10.0 8.0 3.0 8.0 4.0 0.0 4.0 9.0 7.0 2.0 10.0 8.0 6.0 0.0 6.0 9.0 0.0 2.0 10.0 5.0 5.0 7.0 5.0 8.0 0.0 2.0 -328.0 9.0 9.0 7.0 4.0 6.0 0.0 1.0 9.0 1.0 10.0 10.0 0.0 10.0 
8.0 8.0 10.0 7.0 1.0 2.0 0.0 0.0 9.0 1.0 9.0 6.0 2.0 3.0 1.0 2.0 2.0 7.0 5.0 10.0 6.0 2.0 9.0 6.0 2.0 8.0 5.0 4.0 10.0 8.0 4.0 7.0 6.0 9.0 6.0 6.0 10.0 7.0 10.0 4.0 1.0 4.0 3.0 4.0 7.0 10.0 10.0 6.0 2.0 9.0 -333.0 9.0 1.0 0.0 8.0 4.0 6.0 7.0 2.0 6.0 6.0 2.0 4.0 
1.0 1.0 8.0 1.0 6.0 7.0 10.0 1.0 0.0 9.0 6.0 3.0 8.0 10.0 1.0 7.0 8.0 1.0 10.0 10.0 1.0 4.0 4.0 5.0 10.0 9.0 7.0 7.0 4.0 4.0 6.0 5.0 7.0 4.0 8.0 7.0 1.0 7.0 8.0 4.0 7.0 0.0 4.0 10.0 1.0 4.0 1.0 6.0 9.0 9.0 9.0 -343.0 4.0 9.0 8.0 1.0 4.0 0.0 5.0 10.0 4.0 10.0 8.0 
3.0 1.0 7.0 10.0 2.0 10.0 10.0 3.0 9.0 0.0 10.0 10.0 2.0 8.0 4.0 10.0 0.0 8.0 5.0 5.0 3.0 9.0 2.0 3.0 0.0 8.0 2.0 9.0 3.0 7.0 3.0 3.0 9.0 5.0 9.0 8.0 9.0 3.0 8.0 3.0 10.0 3.0 1.0 7.0 5.0 1.0 7.0 6.0 1.0 7.0 1.0 4.0 -316.0 2.0 0.0 8.0 8.0 2.0 5.0 7.0 6.0 0.0 2.0 
2.0 3.0 9.0 1.0 7.0 7.0 9.0 6.0 9.0 5.0 3.0 9.0 10.0 5.0 4.0 8.0 5.0 8.0 10.0 0.0 2.0 10.0 7.0 6.0 4.0 0.0 0.0 7.0 6.0 5.0 9.0 5.0 4.0 6.0 7.0 2.0 8.0 0.0 8.0 5.0 0.0 2.0 9.0 10.0 1.0 8.0 8.0 6.0 5.0 4.0 0.0 9.0 2.0 -323.0 9.0 1.0 8.0 2.0 8.0 0.0 2.0 6.0 2.0 
3.0 10.0 4.0 7.0 0.0 0.0 9.0 9.0 4.0 8.0 10.0 10.0 0.0 4.0 0.0 7.0 3.0 10.0 3.0 4.0 3.0 2.0 2.0 8.0 0.0 5.0 2.0 6.0 7.0 1.0 7.0 10.0 8.0 10.0 0.0 8.0 0.0 6.0 6.0 3.0 3.0 0.0 6.0 3.0 3.0 7.0 5.0 5.0 0.0 6.0 8.0 8.0 0.0 9.0 -306.0 7.0 0.0 9.0 1.0 5.0 2.0 10.0 10.0 
2.0 5.0 5.0 8.0 4.0 10.0 1.0 0.0 4.0 3.0 10.0 3.0 4.0 0.0 0.0 9.0 2.0 1.0 10.0 1.0 7.0 8.0 5.0 6.0 3.0 8.0 6.0 7.0 3.0 2.0 9.0 9.0 9.0 5.0 10.0 9.0 10.0 4.0 7.0 8.0 2.0 6.0 10.0 8.0 7.0 9.0 3.0 0.0 3.0 0.0 4.0 1.0 8.0 1.0 7.0 -320.0 4.0 0.0 4.0 6.0 4.0 8.0 8.0 
0.0 7.0 5.0 7.0 4.0 10.0 1.0 5.0 7.0 1.0 4.0 5.0 7.0 10.0 1.0 2.0 3.0 6.0 0.0 2.0 8.0 6.0 6.0 7.0 10.0 1.0 4.0 6.0 4.0 3.0 3.0 8.0 10.0 7.0 2.0 3.0 7.0 9.0 7.0 6.0 9.0 6.0 7.0 5.0 2.0 1.0 0.0 6.0 8.0 1.0 6.0 4.0 8.0 8.0 0.0 4.0 -302.0 8.0 0.0 2.0 9.0 2.0 2.0 
9.0 10.0 1.0 5.0 2.0 7.0 8.0 5.0 1.0 10.0 5.0 6.0 7.0 5.0 3.0 1.0 10.0 4.0 0.0 8.0 8.0 6.0 0.0 3.0 6.0 2.0 5.0 8.0 7.0 4.0 9.0 4.0 3.0 3.0 9.0 3.0 6.0 1.0 10.0 7.0 4.0 5.0 10.0 3.0 3.0 8.0 10.0 5.0 10.0 9.0 7.0 0.0 2.0 2.0 9.0 0.0 8.0 -328.0 3.0 1.0 4.0 8.0 6.0 
7.0 5.0 8.0 3.0 6.0 9.0 6.0 3.0 5.0 2.0 10.0 5.0 3.0 4.0 0.0 8.0 6.0 7.0 1.0 3.0 3.0 10.0 9.0 7.0 8.0 9.0 5.0 8.0 2.0 3.0 3.0 10.0 0.0 6.0 7.0 2.0 0.0 4.0 10.0 2.0 7.0 9.0 9.0 10.0 5.0 1.0 0.0 7.0 0.0 1.0 2.0 5.0 5.0 8.0 1.0 4.0 0.0 3.0 -314.0 10.0 9.0 9.0 0.0 
2.0 1.0 6.0 1.0 10.0 2.0 9.0 0.0 0.0 7.0 4.0 10.0 4.0 9.0 1.0 3.0 7.0 5.0 3.0 6.0 5.0 7.0 4.0 3.0 0.0 3.0 5.0 1.0 3.0 10.0 9.0 0.0 7.0 3.0 3.0 6.0 0.0 9.0 3.0 5.0 8.0 2.0 0.0 8.0 7.0 0.0 7.0 2.0 7.0 10.0 6.0 10.0 7.0 0.0 5.0 6.0 2.0 1.0 10.0 -289.0 1.0 6.0 8.0 
9.0 0.0 5.0 8.0 5.0 4.0 9.0 10.0 7.0 9.0 1.0 1.0 5.0 10.0 8.0 1.0 4.0 6.0 3.0 2.0 6.0 7.0 2.0 5.0 1.0 3.0 9.0 5.0 4.0 1.0 5.0 5.0 4.0 1.0 5.0 9.0 9.0 4.0 9.0 7.0 3.0 10.0 0.0 2.0 6.0 1.0 1.0 5.0 9.0 10.0 6.0 4.0 6.0 2.0 2.0 4.0 9.0 4.0 9.0 1.0 -309.0 7.0 0.0 
2.0 0.0 0.0 8.0 5.0 3.0 1.0 5.0 7.0 9.0 6.0 10.0 4.0 7.0 8.0 2.0 4.0 7.0 5.0 1.0 9.0 4.0 10.0 1.0 3.0 3.0 9.0 8.0 6.0 9.0 10.0 0.0 2.0 0.0 7.0 8.0 10.0 10.0 3.0 5.0 5.0 1.0 0.0 8.0 0.0 0.0 9.0 5.0 1.0 0.0 2.0 10.0 0.0 6.0 10.0 8.0 2.0 8.0 9.0 6.0 7.0 -318.0 10.0 
0.0 0.0 4.0 5.0 6.0 1.0 3.0 3.0 8.0 1.0 6.0 10.0 9.0 4.0 4.0 4.0 5.0 1.0 7.0 7.0 3.0 8.0 2.0 4.0 1.0 3.0 8.0 0.0 5.0 7.0 10.0 5.0 9.0 8.0 7.0 5.0 7.0 1.0 3.0 4.0 5.0 6.0 9.0 7.0 9.0 2.0 1.0 2.0 1.0 10.0 4.0 8.0 2.0 2.0 10.0 8.0 2.0 6.0 0.0 8.0 0.0 10.0 -300.0 

